NAME: P-n21-k2
COMMENT: GVRP
DIMENSION:  21 
VEHICLES:  1 
GVRP_SETS:  7 
CAPACITY:  160 
NODE_COORD_SECTION 
1 30.000000 40.000000
2 37.000000 52.000000
3 49.000000 49.000000
4 52.000000 64.000000
5 31.000000 62.000000
6 52.000000 33.000000
7 42.000000 41.000000
8 52.000000 41.000000
9 57.000000 58.000000
10 62.000000 42.000000
11 42.000000 57.000000
12 27.000000 68.000000
13 43.000000 67.000000
14 58.000000 48.000000
15 58.000000 27.000000
16 37.000000 69.000000
17 38.000000 46.000000
18 61.000000 33.000000
19 62.000000 63.000000
20 63.000000 69.000000
21 45.000000 35.000000
GVRP_SET_SECTION 
 1 20  19 -1
 2  15  18 -1
 3  12  5 -1
 4  17  2  7 -1
 5  14  3  8  9  10 -1
 6  13  4  11  16 -1
 7  21  6 -1
 DEMAND_SECTION
 1 11 
 2 22 
 3 15 
 4 12 
 5 17 
 6 12 
 7 13 
INTRA_CLUSTER_DISTANCE
100000000 100000000 100000000 100000000 100000000 100000000 100000000 100000000 100000000 100000000 100000000 100000000 100000000 100000000 100000000 100000000 100000000 100000000 100000000 100000000 100000000 
100000000 100000000 100000000 100000000 100000000 100000000 12 100000000 100000000 100000000 100000000 100000000 100000000 100000000 100000000 100000000 18 100000000 100000000 100000000 100000000 
100000000 100000000 100000000 100000000 100000000 100000000 100000000 39 36 41 100000000 100000000 100000000 46 100000000 100000000 100000000 100000000 100000000 100000000 100000000 
100000000 100000000 100000000 100000000 100000000 100000000 100000000 100000000 100000000 100000000 28 100000000 31 100000000 100000000 28 100000000 100000000 100000000 100000000 100000000 
100000000 100000000 100000000 100000000 100000000 100000000 100000000 100000000 100000000 100000000 100000000 7 100000000 100000000 100000000 100000000 100000000 100000000 100000000 100000000 100000000 
100000000 100000000 100000000 100000000 100000000 100000000 100000000 100000000 100000000 100000000 100000000 100000000 100000000 100000000 100000000 100000000 100000000 100000000 100000000 100000000 7 
100000000 12 100000000 100000000 100000000 100000000 100000000 100000000 100000000 100000000 100000000 100000000 100000000 100000000 100000000 100000000 18 100000000 100000000 100000000 100000000 
100000000 100000000 39 100000000 100000000 100000000 100000000 100000000 38 38 100000000 100000000 100000000 45 100000000 100000000 100000000 100000000 100000000 100000000 100000000 
100000000 100000000 36 100000000 100000000 100000000 100000000 38 100000000 37 100000000 100000000 100000000 38 100000000 100000000 100000000 100000000 100000000 100000000 100000000 
100000000 100000000 41 100000000 100000000 100000000 100000000 38 37 100000000 100000000 100000000 100000000 41 100000000 100000000 100000000 100000000 100000000 100000000 100000000 
100000000 100000000 100000000 28 100000000 100000000 100000000 100000000 100000000 100000000 100000000 100000000 34 100000000 100000000 27 100000000 100000000 100000000 100000000 100000000 
100000000 100000000 100000000 100000000 7 100000000 100000000 100000000 100000000 100000000 100000000 100000000 100000000 100000000 100000000 100000000 100000000 100000000 100000000 100000000 100000000 
100000000 100000000 100000000 31 100000000 100000000 100000000 100000000 100000000 100000000 34 100000000 100000000 100000000 100000000 34 100000000 100000000 100000000 100000000 100000000 
100000000 100000000 46 100000000 100000000 100000000 100000000 45 38 41 100000000 100000000 100000000 100000000 100000000 100000000 100000000 100000000 100000000 100000000 100000000 
100000000 100000000 100000000 100000000 100000000 100000000 100000000 100000000 100000000 100000000 100000000 100000000 100000000 100000000 100000000 100000000 100000000 7 100000000 100000000 100000000 
100000000 100000000 100000000 28 100000000 100000000 100000000 100000000 100000000 100000000 27 100000000 34 100000000 100000000 100000000 100000000 100000000 100000000 100000000 100000000 
100000000 18 100000000 100000000 100000000 100000000 18 100000000 100000000 100000000 100000000 100000000 100000000 100000000 100000000 100000000 100000000 100000000 100000000 100000000 100000000 
100000000 100000000 100000000 100000000 100000000 100000000 100000000 100000000 100000000 100000000 100000000 100000000 100000000 100000000 7 100000000 100000000 100000000 100000000 100000000 100000000 
100000000 100000000 100000000 100000000 100000000 100000000 100000000 100000000 100000000 100000000 100000000 100000000 100000000 100000000 100000000 100000000 100000000 100000000 100000000 6 100000000 
100000000 100000000 100000000 100000000 100000000 100000000 100000000 100000000 100000000 100000000 100000000 100000000 100000000 100000000 100000000 100000000 100000000 100000000 6 100000000 100000000 
100000000 100000000 100000000 100000000 100000000 7 100000000 100000000 100000000 100000000 100000000 100000000 100000000 100000000 100000000 100000000 100000000 100000000 100000000 100000000 100000000 
EOF
